        33
pd_super_octa 
H      0.77600    0.77554    2.71970
PD    -0.00241   -0.00291   -0.00420
PD     1.94761    1.94760   -0.00483
PD     2.01904   -0.04097    1.90399
PD    -0.04070    2.01904    1.90388
PD     3.89181   -0.00067   -0.00201
PD     5.83173    1.94606   -0.00380
PD     5.83085   -0.00260    1.94231
PD     3.89308    1.94840    1.94437
PD    -0.00119    3.89242   -0.00127
PD     1.94530    5.83157   -0.00282
PD     1.94797    3.89321    1.94401
PD    -0.00268    5.83073    1.94233
PD     3.89000    3.89080   -0.00079
PD     5.83476    5.83385   -0.00051
PD     5.83355    3.89235    1.94426
PD     3.89216    5.83242    1.94411
PD    -0.04056   -0.04083    3.96382
PD     1.95788    1.95851    3.90333
PD     1.94811   -0.00146    5.83838
PD    -0.00040    1.94922    5.83859
PD     3.89328   -0.00042    3.89319
PD     5.83027    1.94747    3.89329
PD     5.83280   -0.00113    5.83696
PD     3.88961    1.94659    5.83419
PD    -0.00093    3.89356    3.89257
PD     1.94820    5.82963    3.89224
PD     1.94735    3.88944    5.83407
PD    -0.00076    5.83267    5.83730
PD     3.88917    3.88915    3.89204
PD     5.83102    5.83185    3.89040
PD     5.83342    3.89012    5.83472
PD     3.89048    5.83435    5.83535
