        33
pd_super_octa 
H      0.58423    0.58334    2.52806
PD    -0.00290   -0.00309   -0.00573
PD     1.94799    1.94807   -0.00475
PD     2.02266   -0.03867    1.90631
PD    -0.03833    2.02267    1.90579
PD     3.89200   -0.00045   -0.00140
PD     5.83146    1.94604   -0.00395
PD     5.82906   -0.00319    1.94175
PD     3.89200    1.94804    1.94515
PD    -0.00095    3.89277   -0.00077
PD     1.94535    5.83113   -0.00345
PD     1.94783    3.89202    1.94467
PD    -0.00297    5.82907    1.94187
PD     3.89004    3.89080   -0.00083
PD     5.83467    5.83370   -0.00097
PD     5.83402    3.89243    1.94432
PD     3.89202    5.83295    1.94453
PD    -0.03850   -0.03875    3.96719
PD     1.95236    1.95336    3.89745
PD     1.94829   -0.00091    5.83736
PD     0.00033    1.94873    5.83774
PD     3.89230   -0.00014    3.89288
PD     5.83023    1.94777    3.89321
PD     5.83306   -0.00105    5.83713
PD     3.88946    1.94585    5.83431
PD    -0.00023    3.89247    3.89247
PD     1.94851    5.82950    3.89296
PD     1.94704    3.88973    5.83438
PD    -0.00045    5.83325    5.83754
PD     3.88934    3.88964    3.89172
PD     5.83063    5.83152    3.89081
PD     5.83318    3.89036    5.83476
PD     3.89038    5.83439    5.83527
