        33
pd_super_octa 
H      0.00831    0.00466    1.94753
PD    -0.00084    0.00093   -0.01527
PD     1.94868    1.94945   -0.00336
PD     1.96030    0.00005    1.94403
PD     0.00031    1.96075    1.94536
PD     3.89015   -0.00013    0.00117
PD     5.83149    1.94986   -0.00392
PD     5.81979   -0.00024    1.94560
PD     3.88943    1.94426    1.94535
PD     0.00002    3.88951    0.00185
PD     1.94896    5.83017   -0.00330
PD     1.94369    3.88972    1.94460
PD     0.00024    5.81950    1.94349
PD     3.88958    3.89017   -0.00081
PD     5.83174    5.83009   -0.00352
PD     5.83629    3.89053    1.94473
PD     3.88959    5.83547    1.94500
PD     0.00117   -0.00094    3.90545
PD     1.94816    1.95005    3.89286
PD     1.94448    0.00006    5.83574
PD     0.00011    1.94455    5.83443
PD     3.88864   -0.00001    3.88887
PD     5.83157    1.94859    3.89404
PD     5.83587    0.00012    5.83415
PD     3.89045    1.94534    5.83491
PD     0.00030    3.89072    3.88857
PD     1.94907    5.83021    3.89341
PD     1.94676    3.89010    5.83537
PD    -0.00022    5.83531    5.83612
PD     3.88962    3.88994    3.89091
PD     5.83094    5.83153    3.89336
PD     5.83291    3.89006    5.83500
PD     3.89065    5.83430    5.83550
