        32
Lattice="7.78000   0.00000   0.00000   0.00000   7.78000   0.00000   0.00000   0.00000   7.78000" Properties=species:S:1:pos:R:3                                
PD     0.00000    0.00000    0.00000
PD     1.94500    1.94500    0.00000
PD     1.94500    0.00000    1.94500
PD     0.00000    1.94500    1.94500
PD     3.89000    0.00000    0.00000
PD     5.83500    1.94500    0.00000
PD     5.83500    0.00000    1.94500
PD     3.89000    1.94500    1.94500
PD     0.00000    3.89000    0.00000
PD     1.94500    5.83500    0.00000
PD     1.94500    3.89000    1.94500
PD     0.00000    5.83500    1.94500
PD     3.89000    3.89000    0.00000
PD     5.83500    5.83500    0.00000
PD     5.83500    3.89000    1.94500
PD     3.89000    5.83500    1.94500
PD     0.00000    0.00000    3.89000
PD     1.94500    1.94500    3.89000
PD     1.94500    0.00000    5.83500
PD     0.00000    1.94500    5.83500
PD     3.89000    0.00000    3.89000
PD     5.83500    1.94500    3.89000
PD     5.83500    0.00000    5.83500
PD     3.89000    1.94500    5.83500
PD     0.00000    3.89000    3.89000
PD     1.94500    5.83500    3.89000
PD     1.94500    3.89000    5.83500
PD     0.00000    5.83500    5.83500
PD     3.89000    3.89000    3.89000
PD     5.83500    5.83500    3.89000
PD     5.83500    3.89000    5.83500
PD     3.89000    5.83500    5.83500
