        33
pd_super_octa 
H      0.87003    0.86927    2.81384
PD    -0.00233   -0.00264   -0.00426
PD     1.94730    1.94777   -0.00467
PD     2.00654   -0.03926    1.90518
PD    -0.03966    2.00637    1.90511
PD     3.89143   -0.00082   -0.00193
PD     5.83261    1.94654   -0.00307
PD     5.83113   -0.00224    1.94241
PD     3.89381    1.94831    1.94362
PD    -0.00129    3.89208   -0.00115
PD     1.94558    5.83216   -0.00226
PD     1.94783    3.89356    1.94336
PD    -0.00267    5.83110    1.94254
PD     3.89019    3.89081   -0.00096
PD     5.83463    5.83360   -0.00049
PD     5.83355    3.89192    1.94414
PD     3.89192    5.83235    1.94412
PD    -0.03914   -0.03936    3.95140
PD     1.96576    1.96610    3.91120
PD     1.94788   -0.00216    5.83904
PD    -0.00106    1.94922    5.83915
PD     3.89376   -0.00097    3.89316
PD     5.83027    1.94739    3.89333
PD     5.83319   -0.00130    5.83663
PD     3.89016    1.94661    5.83474
PD    -0.00163    3.89402    3.89260
PD     1.94818    5.82980    3.89217
PD     1.94719    3.89004    5.83441
PD    -0.00103    5.83263    5.83713
PD     3.88952    3.88961    3.89198
PD     5.83170    5.83243    3.89050
PD     5.83344    3.89018    5.83494
PD     3.89075    5.83444    5.83555
