        33
pd_super_octa 
H      0.10578    0.10191    2.04181
PD    -0.00382    0.00025   -0.01368
PD     1.94894    1.94981   -0.00368
PD     1.96528   -0.00356    1.93892
PD    -0.00368    1.96574    1.94277
PD     3.89153   -0.00000    0.00176
PD     5.83178    1.94924   -0.00415
PD     5.82141   -0.00233    1.94492
PD     3.89011    1.94498    1.94556
PD    -0.00022    3.88921    0.00225
PD     1.94831    5.83013   -0.00351
PD     1.94460    3.88987    1.94478
PD    -0.00155    5.82117    1.94062
PD     3.88969    3.89016   -0.00110
PD     5.83275    5.83067   -0.00251
PD     5.83684    3.89091    1.94446
PD     3.88994    5.83582    1.94478
PD    -0.00144   -0.00622    3.91043
PD     1.94929    1.95111    3.89397
PD     1.94529   -0.00010    5.83710
PD     0.00023    1.94534    5.83383
PD     3.88806    0.00008    3.88968
PD     5.83084    1.94880    3.89432
PD     5.83602    0.00007    5.83353
PD     3.89028    1.94520    5.83464
PD     0.00006    3.89199    3.88905
PD     1.94947    5.82945    3.89358
PD     1.94671    3.89012    5.83533
PD    -0.00030    5.83596    5.83752
PD     3.88975    3.89005    3.89102
PD     5.83076    5.83186    3.89306
PD     5.83268    3.89014    5.83516
PD     3.89066    5.83424    5.83558
