        33
pd_super_octa 
H      0.96011    0.95955    2.90466
PD    -0.00214   -0.00259   -0.00476
PD     1.94727    1.94747   -0.00367
PD     1.98570   -0.03918    1.90518
PD    -0.03948    1.98550    1.90536
PD     3.89073   -0.00082   -0.00154
PD     5.83356    1.94673   -0.00188
PD     5.83116   -0.00220    1.94244
PD     3.89372    1.94771    1.94247
PD    -0.00132    3.89176   -0.00072
PD     1.94618    5.83344   -0.00106
PD     1.94727    3.89342    1.94270
PD    -0.00241    5.83118    1.94295
PD     3.89019    3.89091   -0.00109
PD     5.83443    5.83347   -0.00054
PD     5.83391    3.89145    1.94389
PD     3.89132    5.83265    1.94379
PD    -0.03898   -0.03942    3.93076
PD     1.98350    1.98410    3.92886
PD     1.94705   -0.00295    5.83921
PD    -0.00179    1.94858    5.83906
PD     3.89369   -0.00194    3.89256
PD     5.83106    1.94713    3.89309
PD     5.83382   -0.00132    5.83623
PD     3.89179    1.94629    5.83662
PD    -0.00253    3.89400    3.89214
PD     1.94784    5.83041    3.89200
PD     1.94690    3.89172    5.83585
PD    -0.00151    5.83293    5.83634
PD     3.89098    3.89113    3.89187
PD     5.83313    5.83368    3.89086
PD     5.83369    3.89049    5.83510
PD     3.89113    5.83437    5.83608
