        33
pd_super_octa 
H      0.00565    0.00201    1.94490
PD    -0.00083    0.00094   -0.01528
PD     1.94868    1.94945   -0.00336
PD     1.96031    0.00008    1.94406
PD     0.00035    1.96075    1.94539
PD     3.89015   -0.00013    0.00117
PD     5.83148    1.94986   -0.00392
PD     5.81978   -0.00023    1.94561
PD     3.88943    1.94426    1.94535
PD     0.00002    3.88950    0.00185
PD     1.94897    5.83017   -0.00330
PD     1.94368    3.88972    1.94460
PD     0.00025    5.81948    1.94350
PD     3.88958    3.89017   -0.00081
PD     5.83173    5.83008   -0.00353
PD     5.83629    3.89053    1.94473
PD     3.88958    5.83547    1.94500
PD     0.00120   -0.00090    3.90545
PD     1.94815    1.95004    3.89286
PD     1.94448    0.00006    5.83574
PD     0.00011    1.94455    5.83443
PD     3.88864   -0.00001    3.88887
PD     5.83158    1.94858    3.89404
PD     5.83586    0.00012    5.83415
PD     3.89045    1.94534    5.83491
PD     0.00030    3.89072    3.88857
PD     1.94907    5.83022    3.89341
PD     1.94676    3.89010    5.83537
PD    -0.00022    5.83531    5.83612
PD     3.88962    3.88994    3.89091
PD     5.83094    5.83153    3.89336
PD     5.83291    3.89006    5.83500
PD     3.89065    5.83430    5.83550
