        33
pd_super_octa 
H      0.48836    0.48616    2.43219
PD    -0.00340   -0.00322   -0.00818
PD     1.94845    1.94836   -0.00518
PD     2.01486   -0.03303    1.91139
PD    -0.03306    2.01480    1.91097
PD     3.89182   -0.00015   -0.00060
PD     5.83146    1.94642   -0.00411
PD     5.82677   -0.00324    1.94119
PD     3.89191    1.94806    1.94556
PD    -0.00105    3.89273   -0.00038
PD     1.94549    5.83073   -0.00366
PD     1.94803    3.89191    1.94506
PD    -0.00353    5.82671    1.94131
PD     3.89039    3.89067   -0.00085
PD     5.83473    5.83324   -0.00113
PD     5.83416    3.89206    1.94462
PD     3.89189    5.83334    1.94525
PD    -0.03332   -0.03342    3.95970
PD     1.95188    1.95264    3.89670
PD     1.94842   -0.00066    5.83711
PD     0.00040    1.94853    5.83753
PD     3.89200    0.00017    3.89286
PD     5.82959    1.94772    3.89367
PD     5.83378   -0.00086    5.83696
PD     3.88950    1.94539    5.83424
PD    -0.00009    3.89255    3.89268
PD     1.94882    5.82898    3.89331
PD     1.94654    3.88991    5.83426
PD    -0.00037    5.83384    5.83764
PD     3.88961    3.88978    3.89110
PD     5.83054    5.83131    3.89099
PD     5.83316    3.89004    5.83469
PD     3.89041    5.83493    5.83504
