        33
pd_super_octa 
H      0.39169    0.39029    2.33525
PD    -0.00368   -0.00325   -0.01022
PD     1.94875    1.94890   -0.00525
PD     2.00248   -0.02568    1.91877
PD    -0.02572    2.00223    1.91812
PD     3.89124   -0.00010    0.00015
PD     5.83173    1.94670   -0.00421
PD     5.82500   -0.00342    1.94083
PD     3.89150    1.94770    1.94585
PD    -0.00092    3.89235    0.00043
PD     1.94610    5.83053   -0.00341
PD     1.94777    3.89162    1.94521
PD    -0.00371    5.82470    1.94080
PD     3.89036    3.89076   -0.00103
PD     5.83437    5.83254   -0.00158
PD     5.83503    3.89179    1.94461
PD     3.89123    5.83421    1.94530
PD    -0.02604   -0.02585    3.94737
PD     1.95142    1.95234    3.89630
PD     1.94811   -0.00047    5.83668
PD     0.00036    1.94785    5.83732
PD     3.89138    0.00019    3.89259
PD     5.82953    1.94776    3.89420
PD     5.83464   -0.00050    5.83653
PD     3.88983    1.94519    5.83427
PD     0.00014    3.89218    3.89227
PD     1.94945    5.82885    3.89350
PD     1.94635    3.89014    5.83454
PD    -0.00026    5.83480    5.83742
PD     3.88979    3.88998    3.89095
PD     5.83037    5.83121    3.89167
PD     5.83288    3.89000    5.83467
PD     3.89038    5.83491    5.83518
