33
g=0.0 E_rel_meV=0.00 Lattice="7.78 0 0 0 7.78 0 0 0 7.78" pbc="T T T" Properties=species:S:1:pos:R:3
Pd    -0.000840     0.000930    -0.015270
Pd     1.948680     1.949450    -0.003360
Pd     1.960300     0.000050     1.944030
Pd     0.000310     1.960750     1.945360
Pd     3.890150    -0.000130     0.001170
Pd     5.831490     1.949860    -0.003920
Pd     5.819790    -0.000240     1.945600
Pd     3.889430     1.944260     1.945350
Pd     0.000020     3.889510     0.001850
Pd     1.948960     5.830170    -0.003300
Pd     1.943690     3.889720     1.944600
Pd     0.000240     5.819500     1.943490
Pd     3.889580     3.890170    -0.000810
Pd     5.831740     5.830090    -0.003520
Pd     5.836290     3.890530     1.944730
Pd     3.889590     5.835470     1.945000
Pd     0.001170    -0.000940     3.905450
Pd     1.948160     1.950050     3.892860
Pd     1.944480     0.000060     5.835740
Pd     0.000110     1.944550     5.834430
Pd     3.888640    -0.000010     3.888870
Pd     5.831570     1.948590     3.894040
Pd     5.835870     0.000120     5.834150
Pd     3.890450     1.945340     5.834910
Pd     0.000300     3.890720     3.888570
Pd     1.949070     5.830210     3.893410
Pd     1.946760     3.890100     5.835370
Pd    -0.000220     5.835310     5.836120
Pd     3.889620     3.889940     3.890910
Pd     5.830940     5.831530     3.893360
Pd     5.832910     3.890060     5.835000
Pd     3.890650     5.834300     5.835500
H      0.008310     0.004660     1.947530
33
g=0.1 E_rel_meV=5.45 Lattice="7.78 0 0 0 7.78 0 0 0 7.78" pbc="T T T" Properties=species:S:1:pos:R:3
Pd    -0.003820     0.000250    -0.013680
Pd     1.948940     1.949810    -0.003680
Pd     1.965280    -0.003560     1.938920
Pd    -0.003680     1.965740     1.942770
Pd     3.891530    -0.000000     0.001760
Pd     5.831780     1.949240    -0.004150
Pd     5.821410    -0.002330     1.944920
Pd     3.890110     1.944980     1.945560
Pd    -0.000220     3.889210     0.002250
Pd     1.948310     5.830130    -0.003510
Pd     1.944600     3.889870     1.944780
Pd    -0.001550     5.821170     1.940620
Pd     3.889690     3.890160    -0.001100
Pd     5.832750     5.830670    -0.002510
Pd     5.836840     3.890910     1.944460
Pd     3.889940     5.835820     1.944780
Pd    -0.001440    -0.006220     3.910430
Pd     1.949290     1.951110     3.893970
Pd     1.945290    -0.000100     5.837100
Pd     0.000230     1.945340     5.833830
Pd     3.888060     0.000080     3.889680
Pd     5.830840     1.948800     3.894320
Pd     5.836020     0.000070     5.833530
Pd     3.890280     1.945200     5.834640
Pd     0.000060     3.891990     3.889050
Pd     1.949470     5.829450     3.893580
Pd     1.946710     3.890120     5.835330
Pd    -0.000300     5.835960     5.837520
Pd     3.889750     3.890050     3.891020
Pd     5.830760     5.831860     3.893060
Pd     5.832680     3.890140     5.835160
Pd     3.890660     5.834240     5.835580
H      0.105780     0.101910     2.041810
33
g=0.2 E_rel_meV=22.76 Lattice="7.78 0 0 0 7.78 0 0 0 7.78" pbc="T T T" Properties=species:S:1:pos:R:3
Pd    -0.003410    -0.002430    -0.012340
Pd     1.948510     1.949150    -0.004170
Pd     1.972620    -0.009090     1.935650
Pd    -0.008860     1.973030     1.935690
Pd     3.890550     0.000060     0.001240
Pd     5.832490     1.947900    -0.003770
Pd     5.823000    -0.003500     1.941900
Pd     3.890590     1.945960     1.945620
Pd    -0.000650     3.890840     0.002210
Pd     1.946930     5.830950    -0.002870
Pd     1.945800     3.890420     1.944990
Pd    -0.003000     5.822720     1.941030
Pd     3.890160     3.890410    -0.001120
Pd     5.833930     5.831790    -0.001910
Pd     5.836620     3.891140     1.944540
Pd     3.890480     5.835710     1.944940
Pd    -0.008580    -0.009810     3.917930
Pd     1.949550     1.951360     3.894830
Pd     1.946520    -0.000140     5.835940
Pd     0.000390     1.945760     5.835640
Pd     3.889890     0.000190     3.891050
Pd     5.830940     1.948060     3.894080
Pd     5.835730     0.000050     5.835130
Pd     3.890130     1.944700     5.834830
Pd     0.000140     3.891280     3.890010
Pd     1.949000     5.829690     3.893310
Pd     1.946650     3.890200     5.835220
Pd    -0.000370     5.836450     5.836580
Pd     3.889860     3.890210     3.890940
Pd     5.831290     5.832380     3.892190
Pd     5.832740     3.890120     5.835070
Pd     3.890530     5.834560     5.835530
H      0.198820     0.196700     2.142520
33
g=0.3 E_rel_meV=61.57 Lattice="7.78 0 0 0 7.78 0 0 0 7.78" pbc="T T T" Properties=species:S:1:pos:R:3
Pd    -0.003750    -0.003570    -0.011720
Pd     1.948980     1.949540    -0.005040
Pd     1.988950    -0.018120     1.927060
Pd    -0.018000     1.988960     1.926020
Pd     3.890750     0.000040     0.000610
Pd     5.831840     1.947570    -0.004190
Pd     5.823510    -0.004250     1.940690
Pd     3.891120     1.947150     1.945670
Pd    -0.000710     3.891860     0.001320
Pd     1.946750     5.830450    -0.003250
Pd     1.947050     3.890960     1.945050
Pd    -0.003740     5.823390     1.940790
Pd     3.889980     3.890470    -0.001250
Pd     5.834030     5.832140    -0.001880
Pd     5.836170     3.891600     1.944240
Pd     3.890810     5.834990     1.944860
Pd    -0.018200    -0.018280     3.933830
Pd     1.950690     1.952350     3.895920
Pd     1.947560    -0.000380     5.836080
Pd     0.000520     1.947150     5.836740
Pd     3.890670     0.000140     3.892140
Pd     5.830160     1.948400     3.894400
Pd     5.835160    -0.000180     5.836050
Pd     3.889970     1.945000     5.834750
Pd     0.000300     3.891370     3.891370
Pd     1.949580     5.829060     3.893770
Pd     1.946880     3.890220     5.835110
Pd    -0.000140     5.835690     5.836850
Pd     3.889690     3.890160     3.891270
Pd     5.830460     5.831820     3.892130
Pd     5.832360     3.890030     5.834960
Pd     3.890310     5.834370     5.835460
H      0.294590     0.293860     2.239210
33
g=0.4 E_rel_meV=114.43 Lattice="7.78 0 0 0 7.78 0 0 0 7.78" pbc="T T T" Properties=species:S:1:pos:R:3
Pd    -0.003680    -0.003250    -0.010220
Pd     1.948750     1.948900    -0.005250
Pd     2.002480    -0.025680     1.918770
Pd    -0.025720     2.002230     1.918120
Pd     3.891240    -0.000100     0.000150
Pd     5.831730     1.946700    -0.004210
Pd     5.825000    -0.003420     1.940830
Pd     3.891500     1.947700     1.945850
Pd    -0.000920     3.892350     0.000430
Pd     1.946100     5.830530    -0.003410
Pd     1.947770     3.891620     1.945210
Pd    -0.003710     5.824700     1.940800
Pd     3.890360     3.890760    -0.001030
Pd     5.834370     5.832540    -0.001580
Pd     5.835030     3.891790     1.944610
Pd     3.891230     5.834210     1.945300
Pd    -0.026040    -0.025850     3.947370
Pd     1.951420     1.952340     3.896300
Pd     1.948110    -0.000470     5.836680
Pd     0.000360     1.947850     5.837320
Pd     3.891380     0.000190     3.892590
Pd     5.829530     1.947760     3.894200
Pd     5.834640    -0.000500     5.836530
Pd     3.889830     1.945190     5.834270
Pd     0.000140     3.892180     3.892270
Pd     1.949450     5.828850     3.893500
Pd     1.946350     3.890140     5.834540
Pd    -0.000260     5.834800     5.837420
Pd     3.889790     3.889980     3.890950
Pd     5.830370     5.831210     3.891670
Pd     5.832880     3.890000     5.834670
Pd     3.890380     5.834910     5.835180
H      0.391690     0.390290     2.335250
33
g=0.5 E_rel_meV=165.21 Lattice="7.78 0 0 0 7.78 0 0 0 7.78" pbc="T T T" Properties=species:S:1:pos:R:3
Pd    -0.003400    -0.003220    -0.008180
Pd     1.948450     1.948360    -0.005180
Pd     2.014860    -0.033030     1.911390
Pd    -0.033060     2.014800     1.910970
Pd     3.891820    -0.000150    -0.000600
Pd     5.831460     1.946420    -0.004110
Pd     5.826770    -0.003240     1.941190
Pd     3.891910     1.948060     1.945560
Pd    -0.001050     3.892730    -0.000380
Pd     1.945490     5.830730    -0.003660
Pd     1.948030     3.891910     1.945060
Pd    -0.003530     5.826710     1.941310
Pd     3.890390     3.890670    -0.000850
Pd     5.834730     5.833240    -0.001130
Pd     5.834160     3.892060     1.944620
Pd     3.891890     5.833340     1.945250
Pd    -0.033320    -0.033420     3.959700
Pd     1.951880     1.952640     3.896700
Pd     1.948420    -0.000660     5.837110
Pd     0.000400     1.948530     5.837530
Pd     3.892000     0.000170     3.892860
Pd     5.829590     1.947720     3.893670
Pd     5.833780    -0.000860     5.836960
Pd     3.889500     1.945390     5.834240
Pd    -0.000090     3.892550     3.892680
Pd     1.948820     5.828980     3.893310
Pd     1.946540     3.889910     5.834260
Pd    -0.000370     5.833840     5.837640
Pd     3.889610     3.889780     3.891100
Pd     5.830540     5.831310     3.890990
Pd     5.833160     3.890040     5.834690
Pd     3.890410     5.834930     5.835040
H      0.488360     0.486160     2.432190
33
g=0.6 E_rel_meV=198.78 Lattice="7.78 0 0 0 7.78 0 0 0 7.78" pbc="T T T" Properties=species:S:1:pos:R:3
Pd    -0.002900    -0.003090    -0.005730
Pd     1.947990     1.948070    -0.004750
Pd     2.022660    -0.038670     1.906310
Pd    -0.038330     2.022670     1.905790
Pd     3.892000    -0.000450    -0.001400
Pd     5.831460     1.946040    -0.003950
Pd     5.829060    -0.003190     1.941750
Pd     3.892000     1.948040     1.945150
Pd    -0.000950     3.892770    -0.000770
Pd     1.945350     5.831130    -0.003450
Pd     1.947830     3.892020     1.944670
Pd    -0.002970     5.829070     1.941870
Pd     3.890040     3.890800    -0.000830
Pd     5.834670     5.833700    -0.000970
Pd     5.834020     3.892430     1.944320
Pd     3.892020     5.832950     1.944530
Pd    -0.038500    -0.038750     3.967190
Pd     1.952360     1.953360     3.897450
Pd     1.948290    -0.000910     5.837360
Pd     0.000330     1.948730     5.837740
Pd     3.892300    -0.000140     3.892880
Pd     5.830230     1.947770     3.893210
Pd     5.833060    -0.001050     5.837130
Pd     3.889460     1.945850     5.834310
Pd    -0.000230     3.892470     3.892470
Pd     1.948510     5.829500     3.892960
Pd     1.947040     3.889730     5.834380
Pd    -0.000450     5.833250     5.837540
Pd     3.889340     3.889640     3.891720
Pd     5.830630     5.831520     3.890810
Pd     5.833180     3.890360     5.834760
Pd     3.890380     5.834390     5.835270
H      0.584230     0.583340     2.528060
33
g=0.7 E_rel_meV=198.21 Lattice="7.78 0 0 0 7.78 0 0 0 7.78" pbc="T T T" Properties=species:S:1:pos:R:3
Pd    -0.002590    -0.003070    -0.004750
Pd     1.947780     1.947780    -0.004840
Pd     2.024230    -0.041040     1.904000
Pd    -0.040640     2.024280     1.903700
Pd     3.892060    -0.000560    -0.001760
Pd     5.831470     1.945930    -0.004010
Pd     5.830130    -0.002860     1.942070
Pd     3.892440     1.948230     1.944890
Pd    -0.001060     3.892610    -0.001200
Pd     1.945180     5.831280    -0.003240
Pd     1.947920     3.892610     1.944350
Pd    -0.002780     5.830020     1.942120
Pd     3.889990     3.890790    -0.000760
Pd     5.834810     5.833870    -0.000670
Pd     5.833670     3.892460     1.944360
Pd     3.892160     5.832590     1.944370
Pd    -0.040760    -0.040900     3.968980
Pd     1.954250     1.955040     3.899490
Pd     1.948200    -0.001080     5.837830
Pd     0.000050     1.949000     5.838150
Pd     3.892790    -0.000220     3.893020
Pd     5.830190     1.947580     3.893220
Pd     5.832780    -0.001070     5.837150
Pd     3.889440     1.946270     5.834140
Pd    -0.000480     3.893010     3.892450
Pd     1.948310     5.829570     3.892530
Pd     1.947130     3.889420     5.834150
Pd    -0.000560     5.832850     5.837480
Pd     3.889220     3.889260     3.891910
Pd     5.830710     5.831600     3.890490
Pd     5.833430     3.890170     5.834680
Pd     3.890390     5.834360     5.835250
H      0.680460     0.679850     2.624220
33
g=0.8 E_rel_meV=165.27 Lattice="7.78 0 0 0 7.78 0 0 0 7.78" pbc="T T T" Properties=species:S:1:pos:R:3
Pd    -0.002410    -0.002910    -0.004200
Pd     1.947610     1.947600    -0.004830
Pd     2.019040    -0.040970     1.903990
Pd    -0.040700     2.019040     1.903880
Pd     3.891810    -0.000670    -0.002010
Pd     5.831730     1.946060    -0.003800
Pd     5.830850    -0.002600     1.942310
Pd     3.893080     1.948400     1.944370
Pd    -0.001190     3.892420    -0.001270
Pd     1.945300     5.831570    -0.002820
Pd     1.947970     3.893210     1.944010
Pd    -0.002680     5.830730     1.942330
Pd     3.890000     3.890800    -0.000790
Pd     5.834760     5.833850    -0.000510
Pd     5.833550     3.892350     1.944260
Pd     3.892160     5.832420     1.944110
Pd    -0.040560    -0.040830     3.963820
Pd     1.957880     1.958510     3.903330
Pd     1.948110    -0.001460     5.838380
Pd    -0.000400     1.949220     5.838590
Pd     3.893280    -0.000420     3.893190
Pd     5.830270     1.947470     3.893290
Pd     5.832800    -0.001130     5.836960
Pd     3.889610     1.946590     5.834190
Pd    -0.000930     3.893560     3.892570
Pd     1.948200     5.829630     3.892240
Pd     1.947350     3.889440     5.834070
Pd    -0.000760     5.832670     5.837300
Pd     3.889170     3.889150     3.892040
Pd     5.831020     5.831850     3.890400
Pd     5.833420     3.890120     5.834720
Pd     3.890480     5.834350     5.835350
H      0.776000     0.775540     2.719700
33
g=0.9 E_rel_meV=115.96 Lattice="7.78 0 0 0 7.78 0 0 0 7.78" pbc="T T T" Properties=species:S:1:pos:R:3
Pd    -0.002330    -0.002640    -0.004260
Pd     1.947300     1.947770    -0.004670
Pd     2.006540    -0.039260     1.905180
Pd    -0.039660     2.006370     1.905110
Pd     3.891430    -0.000820    -0.001930
Pd     5.832610     1.946540    -0.003070
Pd     5.831130    -0.002240     1.942410
Pd     3.893810     1.948310     1.943620
Pd    -0.001290     3.892080    -0.001150
Pd     1.945580     5.832160    -0.002260
Pd     1.947830     3.893560     1.943360
Pd    -0.002670     5.831100     1.942540
Pd     3.890190     3.890810    -0.000960
Pd     5.834630     5.833600    -0.000490
Pd     5.833550     3.891920     1.944140
Pd     3.891920     5.832350     1.944120
Pd    -0.039140    -0.039360     3.951400
Pd     1.965760     1.966100     3.911200
Pd     1.947880    -0.002160     5.839040
Pd    -0.001060     1.949220     5.839150
Pd     3.893760    -0.000970     3.893160
Pd     5.830270     1.947390     3.893330
Pd     5.833190    -0.001300     5.836630
Pd     3.890160     1.946610     5.834740
Pd    -0.001630     3.894020     3.892600
Pd     1.948180     5.829800     3.892170
Pd     1.947190     3.890040     5.834410
Pd    -0.001030     5.832630     5.837130
Pd     3.889520     3.889610     3.891980
Pd     5.831700     5.832430     3.890500
Pd     5.833440     3.890180     5.834940
Pd     3.890750     5.834440     5.835550
H      0.870030     0.869270     2.813840
33
g=1.0 E_rel_meV=84.42 Lattice="7.78 0 0 0 7.78 0 0 0 7.78" pbc="T T T" Properties=species:S:1:pos:R:3
Pd    -0.002140    -0.002590    -0.004760
Pd     1.947270     1.947470    -0.003670
Pd     1.985700    -0.039180     1.905180
Pd    -0.039480     1.985500     1.905360
Pd     3.890730    -0.000820    -0.001540
Pd     5.833560     1.946730    -0.001880
Pd     5.831160    -0.002200     1.942440
Pd     3.893720     1.947710     1.942470
Pd    -0.001320     3.891760    -0.000720
Pd     1.946180     5.833440    -0.001060
Pd     1.947270     3.893420     1.942700
Pd    -0.002410     5.831180     1.942950
Pd     3.890190     3.890910    -0.001090
Pd     5.834430     5.833470    -0.000540
Pd     5.833910     3.891450     1.943890
Pd     3.891320     5.832650     1.943790
Pd    -0.038980    -0.039420     3.930760
Pd     1.983500     1.984100     3.928860
Pd     1.947050    -0.002950     5.839210
Pd    -0.001790     1.948580     5.839060
Pd     3.893690    -0.001940     3.892560
Pd     5.831060     1.947130     3.893090
Pd     5.833820    -0.001320     5.836230
Pd     3.891790     1.946290     5.836620
Pd    -0.002530     3.894000     3.892140
Pd     1.947840     5.830410     3.892000
Pd     1.946900     3.891720     5.835850
Pd    -0.001510     5.832930     5.836340
Pd     3.890980     3.891130     3.891870
Pd     5.833130     5.833680     3.890860
Pd     5.833690     3.890490     5.835100
Pd     3.891130     5.834370     5.836080
H      0.960110     0.959550     2.904660
