        33
pd_super_octa 
H      0.19882    0.19670    2.14252
PD    -0.00341   -0.00243   -0.01234
PD     1.94851    1.94915   -0.00417
PD     1.97262   -0.00909    1.93565
PD    -0.00886    1.97303    1.93569
PD     3.89055    0.00006    0.00124
PD     5.83249    1.94790   -0.00377
PD     5.82300   -0.00350    1.94190
PD     3.89059    1.94596    1.94562
PD    -0.00065    3.89084    0.00221
PD     1.94693    5.83095   -0.00287
PD     1.94580    3.89042    1.94499
PD    -0.00300    5.82272    1.94103
PD     3.89016    3.89041   -0.00112
PD     5.83393    5.83179   -0.00191
PD     5.83662    3.89114    1.94454
PD     3.89048    5.83571    1.94494
PD    -0.00858   -0.00981    3.91793
PD     1.94955    1.95136    3.89483
PD     1.94652   -0.00014    5.83594
PD     0.00039    1.94576    5.83564
PD     3.88989    0.00019    3.89105
PD     5.83094    1.94806    3.89408
PD     5.83573    0.00005    5.83513
PD     3.89013    1.94470    5.83483
PD     0.00014    3.89128    3.89001
PD     1.94900    5.82969    3.89331
PD     1.94665    3.89020    5.83522
PD    -0.00037    5.83645    5.83658
PD     3.88986    3.89021    3.89094
PD     5.83129    5.83238    3.89219
PD     5.83274    3.89012    5.83507
PD     3.89053    5.83456    5.83553
