        33
pd_super_octa 
H      0.68046    0.67985    2.62422
PD    -0.00259   -0.00307   -0.00475
PD     1.94778    1.94778   -0.00484
PD     2.02423   -0.04104    1.90400
PD    -0.04064    2.02428    1.90370
PD     3.89206   -0.00056   -0.00176
PD     5.83147    1.94593   -0.00401
PD     5.83013   -0.00286    1.94207
PD     3.89244    1.94823    1.94489
PD    -0.00106    3.89261   -0.00120
PD     1.94518    5.83128   -0.00324
PD     1.94792    3.89261    1.94435
PD    -0.00278    5.83002    1.94212
PD     3.88999    3.89079   -0.00076
PD     5.83481    5.83387   -0.00067
PD     5.83367    3.89246    1.94436
PD     3.89216    5.83259    1.94437
PD    -0.04076   -0.04090    3.96898
PD     1.95425    1.95504    3.89949
PD     1.94820   -0.00108    5.83783
PD     0.00005    1.94900    5.83815
PD     3.89279   -0.00022    3.89302
PD     5.83019    1.94758    3.89322
PD     5.83278   -0.00107    5.83715
PD     3.88944    1.94627    5.83414
PD    -0.00048    3.89301    3.89245
PD     1.94831    5.82957    3.89253
PD     1.94713    3.88942    5.83415
PD    -0.00056    5.83285    5.83748
PD     3.88922    3.88926    3.89191
PD     5.83071    5.83160    3.89049
PD     5.83343    3.89017    5.83468
PD     3.89039    5.83436    5.83525
