        33
pd_super_tetra 
H      0.97293    0.97233    2.91745
PD    -0.00214   -0.00259   -0.00476
PD     1.94726    1.94746   -0.00366
PD     1.98489   -0.03945    1.90491
PD    -0.03974    1.98470    1.90510
PD     3.89072   -0.00083   -0.00153
PD     5.83359    1.94674   -0.00185
PD     5.83117   -0.00220    1.94244
PD     3.89374    1.94770    1.94243
PD    -0.00132    3.89175   -0.00071
PD     1.94619    5.83347   -0.00103
PD     1.94726    3.89344    1.94267
PD    -0.00241    5.83118    1.94294
PD     3.89019    3.89092   -0.00109
PD     5.83444    5.83347   -0.00054
PD     5.83392    3.89145    1.94389
PD     3.89131    5.83265    1.94379
PD    -0.03924   -0.03969    3.92995
PD     1.98445    1.98505    3.92981
PD     1.94704   -0.00299    5.83924
PD    -0.00182    1.94857    5.83908
PD     3.89371   -0.00198    3.89254
PD     5.83107    1.94713    3.89309
PD     5.83383   -0.00132    5.83622
PD     3.89186    1.94629    5.83669
PD    -0.00256    3.89402    3.89212
PD     1.94784    5.83042    3.89200
PD     1.94689    3.89179    5.83591
PD    -0.00151    5.83294    5.83634
PD     3.89105    3.89120    3.89186
PD     5.83316    5.83371    3.89087
PD     5.83369    3.89050    5.83510
PD     3.89113    5.83437    5.83608
