        33
pd_super_octa 
H      0.29459    0.29386    2.23921
PD    -0.00375   -0.00357   -0.01172
PD     1.94898    1.94954   -0.00504
PD     1.98895   -0.01812    1.92706
PD    -0.01800    1.98896    1.92602
PD     3.89075    0.00004    0.00061
PD     5.83184    1.94757   -0.00419
PD     5.82351   -0.00425    1.94069
PD     3.89112    1.94715    1.94567
PD    -0.00071    3.89186    0.00132
PD     1.94675    5.83045   -0.00325
PD     1.94705    3.89096    1.94505
PD    -0.00374    5.82339    1.94079
PD     3.88998    3.89047   -0.00125
PD     5.83403    5.83214   -0.00188
PD     5.83617    3.89160    1.94424
PD     3.89081    5.83499    1.94486
PD    -0.01820   -0.01828    3.93383
PD     1.95069    1.95235    3.89592
PD     1.94756   -0.00038    5.83608
PD     0.00052    1.94715    5.83674
PD     3.89067    0.00014    3.89214
PD     5.83016    1.94840    3.89440
PD     5.83516   -0.00018    5.83605
PD     3.88997    1.94500    5.83475
PD     0.00030    3.89137    3.89137
PD     1.94958    5.82906    3.89377
PD     1.94688    3.89022    5.83511
PD    -0.00014    5.83569    5.83685
PD     3.88969    3.89016    3.89127
PD     5.83046    5.83182    3.89213
PD     5.83236    3.89003    5.83496
PD     3.89031    5.83437    5.83546
